column=10;
row=10;
Board=[|4,0,0,0,0,1,0,0,0,0|0,0,0,0,0,0,0,0,5,0|1,0,0,0,0,0,0,0,0,0|0,0,0,0,0,0,0,0,0,5|0,0,0,1,0,0,0,0,0,0|0,0,0,0,0,0,6,0,0,0|0,3,0,0,0,0,3,0,0,0|0,0,0,0,0,0,0,0,0,0|0,0,0,0,0,0,0,0,0,0|0,0,0,0,0,0,0,0,0,0|];
Lighthouse=[|-1,-1,-1,-1,-1,-1,-1,-1,-1,-1|-1,-1,-1,-1,-1,-1,-1,-1,-1,-1|-1,-1,-1,-1,-1,-1,-1,-1,-1,-1|-1,-1,-1,-1,-1,-1,-1,-1,-1,-1|-1,-1,-1,-1,-1,-1,-1,-1,-1,-1|-1,-1,-1,-1,-1,-1,-1,-1,4,3|-1,-1,-1,5,-1,-1,-1,-1,4,-1|-1,-1,-1,3,-1,-1,-1,-1,2,1|2,4,-1,-1,-1,1,4,1,2,-1|2,-1,1,3,-1,1,-1,1,2,1|];
